8088
38, 48, 24, 5, 15, 6, 4, 25, 46, 28, 27, 26, 47, 13, 14, 52, 11, 12, 51, 33, 43, 9, 10, 8, 41, 19, 45, 32, 49, 1, 22, 31, 18, 3, 17, 2, 7, 42, 21, 23, 30, 20, 50, 29, 16, 44, 34, 36, 35, 39, 40, 37
